44
51
78
39
176
39
178
39
52
0
0
0
28
48
84
58
273
17
80
90
36
0
25
150
148
48
28
77
174
21
31
144
40
81
33
40
26
0
102
87
45
25
0
24
0
40
24
72
56
208
41
121
0
56
74
41
130
26
59
38
109
21
319
0
12
105
21
77
178
39
25
259
50
0
25
154
334
16
119
45
36
64
37
37
135
137
13
52
59
35
30
54
46
615
0
18
28
88
18
0
